; benchmark generated from python API
(set-info :status unknown)
(declare-fun A_3 () Real)
(declare-fun B () Real)
(declare-fun A_4 () Real)
(declare-fun S_1 () Real)
(declare-fun S_2 () Real)
(declare-fun S_3 () Real)
(declare-fun L_2 () Real)
(declare-fun A_2 () Real)
(declare-fun S_0 () Real)
(declare-fun S_4 () Real)
(declare-fun A_1 () Real)
(declare-fun L_1 () Real)
(declare-fun L_0 () Real)
(declare-fun A_0 () Real)
(assert
 (let (($x1600 (<= (+ (* (- 1.0) S_2) (* (- 1.0) L_1) (* (- 1.0) B) A_1) 0.0)))
 (let (($x1306 (<= (+ (* (- 1.0) S_3) (* (- 1.0) B) (* (- 1.0) L_2) A_2) 0.0)))
 (let (($x1320 (<= (+ A_0 (* (- 1.0) S_1) (* (- 1.0) B) (* (- 1.0) L_1)) 0.0)))
 (let (($x1357 (>= B 0.0)))
 (let ((?x893 (* (- 1.0) A_1)))
 (let ((?x740 (* (- 1.0) L_0)))
 (let ((?x753 (* (- 1.0) A_2)))
 (let (($x1882 (= B 0.0)))
 (let (($x1325 (<= (+ (* (- 1.0) A_0) S_0 B L_1) 0.0)))
 (let ((?x749 (* (- 1.0) L_1)))
 (let (($x685 (= ?x749 ?x740)))
 (let (($x31861 (or $x685 $x1325 $x1882 (<= (+ ?x753 L_2 S_3 A_0 ?x740 L_1 B ?x893) 0.0))))
 (let ((?x1596 (* (- 3.0) A_1)))
 (let ((?x1223 (* 2.0 B)))
 (let ((?x1595 (* 3.0 L_1)))
 (let ((?x799 (* (- 1.0) A_4)))
 (let ((?x1432 (* (- 2.0) L_0)))
 (let ((?x1594 (* 2.0 A_0)))
 (let (($x31060 (or $x685 $x1325 $x1882 (<= (+ S_4 ?x1594 ?x1432 ?x799 ?x1595 ?x1223 ?x1596 A_3) 0.0))))
 (let (($x1602 (<= (+ A_0 ?x740 S_2 (* 2.0 L_1) ?x1223 (* (- 2.0) A_1)) 0.0)))
 (let ((?x15964 (* (/ 1.0 2.0) A_3)))
 (let ((?x15742 (* (- (/ 1.0 2.0)) B)))
 (let ((?x1304 (* (- 1.0) S_3)))
 (let ((?x9116 (* (- (/ 1.0 2.0)) A_4)))
 (let ((?x3184 (* (/ 1.0 2.0) S_4)))
 (let ((?x3059 (* (/ 1.0 2.0) A_1)))
 (let ((?x3034 (* (- (/ 1.0 2.0)) L_1)))
 (let ((?x12837 (* (/ 2.0 3.0) A_3)))
 (let ((?x13571 (* (- (/ 2.0 3.0)) B)))
 (let ((?x13091 (* (- (/ 2.0 3.0)) A_4)))
 (let ((?x4211 (* (- (/ 1.0 3.0)) L_0)))
 (let ((?x4199 (* (/ 1.0 3.0) A_0)))
 (let ((?x4252 (* (/ 2.0 3.0) S_4)))
 (let (($x1848 (<= (+ A_2 (* (- 1.0) L_2) ?x1304) 0.0)))
 (let (($x17334 (or $x1848 (<= (+ ?x4252 ?x4199 ?x4211 ?x13091 ?x1304 ?x13571 ?x12837) 0.0) (<= (+ ?x3034 ?x3059 ?x3184 ?x9116 ?x1304 ?x15742 ?x15964) 0.0))))
 (let ((?x12968 (* (/ 1.0 3.0) A_3)))
 (let ((?x12174 (* (- (/ 1.0 3.0)) B)))
 (let ((?x1447 (* (- 1.0) S_2)))
 (let ((?x12966 (* (- (/ 1.0 3.0)) A_4)))
 (let ((?x4208 (* (- (/ 2.0 3.0)) L_0)))
 (let ((?x4220 (* (/ 2.0 3.0) A_0)))
 (let ((?x4218 (* (/ 1.0 3.0) S_4)))
 (let (($x1829 (<= (+ ?x749 A_1 ?x1447) 0.0)))
 (let ((?x787 (* (- 1.0) A_0)))
 (let ((?x1338 (* 2.0 A_1)))
 (let ((?x1348 (* (- 2.0) L_1)))
 (let ((?x780 (* (- 1.0) B)))
 (let ((?x4263 (* (/ 2.0 3.0) L_0)))
 (let ((?x4262 (* (- (/ 2.0 3.0)) A_0)))
 (let ((?x4261 (* (- (/ 1.0 3.0)) S_4)))
 (let (($x2299 (<= (+ A_3 (* (- 1.0) S_4) (* (- 1.0) L_2)) 0.0)))
 (let (($x1622 (<= (+ ?x787 L_0 ?x1348 L_2 (* (- 2.0) B) ?x1338 ?x753) 0.0)))
 (let (($x31124 (or (not $x1622) $x2299 (<= (+ ?x4261 ?x4262 ?x4263 ?x749 ?x780 A_1) 0.0) (<= (+ ?x1348 ?x1338 L_0 L_2 ?x787 ?x753) 0.0))))
 (let (($x31198 (or $x685 $x1325 $x1882 (<= (+ ?x753 L_2 S_4 ?x799 A_0 ?x740 L_1 ?x893 A_3) 0.0))))
 (let ((?x5356 (* (- (/ 1.0 2.0)) L_0)))
 (let ((?x3032 (* (- (/ 1.0 2.0)) S_3)))
 (let ((?x5342 (* (/ 1.0 2.0) A_0)))
 (let ((?x843 (* (- 1.0) A_3)))
 (let (($x15580 (or $x1848 (<= (+ ?x843 S_4 A_1 ?x1304) 0.0) (<= (+ ?x843 S_4 ?x5342 ?x3032 ?x5356 L_1) 0.0))))
 (let (($x32060 (or $x685 $x1325 (<= (+ ?x1594 ?x1432 S_3 ?x1595 (* 3.0 B) ?x1596) 0.0) $x1882)))
 (let ((?x1574 (* (- 4.0) A_1)))
 (let ((?x1551 (* 4.0 B)))
 (let ((?x1567 (* 4.0 L_1)))
 (let ((?x1425 (* (- 3.0) L_0)))
 (let ((?x1424 (* 3.0 A_0)))
 (let (($x21070 (or $x685 $x1325 $x1882 (<= (+ ?x843 S_4 A_0 ?x740 B L_1 L_2 ?x893) 0.0))))
 (let (($x14661 (or $x1848 (<= (+ (* (- (/ 1.0 2.0)) A_0) (* (/ 1.0 2.0) L_0) ?x3032 S_1) 0.0))))
 (let (($x11437 (or $x1829 (<= (+ ?x753 L_2 S_4 ?x799 A_0 ?x1447 ?x740 ?x780 A_3) 0.0))))
 (let (($x3187 (<= (+ (* (/ 1.0 2.0) L_1) (* (- (/ 1.0 2.0)) A_1) (* (- (/ 1.0 2.0)) S_4) S_2) 0.0)))
 (let (($x30566 (or $x1882 $x2299 (not (<= (+ ?x4252 ?x4199 ?x4211 L_2 ?x753) 0.0)) (<= (+ ?x4261 ?x4262 ?x4263 S_1) 0.0))))
 (let (($x7743 (<= (+ A_2 (* (- 1.0) L_2) (* (- 1.0) S_4) ?x787 L_0 S_1) 0.0)))
 (let (($x4287 (<= (+ ?x4252 ?x4199 ?x4211 L_2 ?x753) 0.0)))
 (let (($x4260 (<= (+ (* (- (/ 2.0 3.0)) S_4) (* (- (/ 1.0 3.0)) A_0) (* (/ 1.0 3.0) L_0) S_2) 0.0)))
 (let (($x11175 (or $x1848 (<= (+ ?x3184 ?x5342 ?x5356 ?x1304) 0.0) (<= (+ (* (- (/ 2.0 3.0)) L_1) (* (/ 2.0 3.0) A_1) ?x4218 ?x1304) 0.0))))
 (let ((?x1354 (* (- 2.0) A_1)))
 (let ((?x1353 (* 2.0 L_1)))
 (let (($x19547 (or $x685 $x1325 $x1882 (<= (+ ?x753 L_2 S_4 ?x1594 ?x1432 ?x1353 ?x1223 ?x1354) 0.0))))
 (let (($x1610 (<= (+ ?x749 L_2) 0.0)))
 (let ((?x1310 (* (- 3.0) A_2)))
 (let ((?x1309 (* 3.0 L_2)))
 (let ((?x1308 (* 3.0 B)))
 (let ((?x1307 (* 2.0 S_3)))
 (let (($x1356 (<= (+ A_0 ?x740 ?x780 ?x1353 (* (- 1.0) L_2) ?x1354 A_2) 0.0)))
 (let (($x924 (not $x1356)))
 (let (($x6083 (<= (+ (* (- 2.0) A_3) (* 2.0 S_4) A_0 ?x740 ?x1309 B ?x753) 0.0)))
 (let ((?x1578 (* (- 1.0) S_4)))
 (let ((?x758 (* (- 1.0) L_2)))
 (let (($x31243 (or $x1622 $x1882 $x2299 (<= (+ A_2 ?x758 ?x1578 ?x787 L_0 ?x749 ?x780 A_1) 0.0))))
 (let ((?x4258 (* (/ 1.0 3.0) L_0)))
 (let ((?x4257 (* (- (/ 1.0 3.0)) A_0)))
 (let ((?x4210 (* (- (/ 2.0 3.0)) S_4)))
 (let (($x1303 (<= (+ S_4 A_0 ?x740 ?x1223 (* 2.0 L_2) (* (- 2.0) A_2)) 0.0)))
 (let ((?x1341 (* 2.0 A_3)))
 (let ((?x1337 (* (- 2.0) A_4)))
 (let ((?x1463 (* 2.0 S_4)))
 (let (($x32119 (or $x924 $x1610 $x1882 (<= (+ ?x1463 A_0 ?x740 ?x1337 ?x1309 B ?x1310 ?x1341) 0.0))))
 (let (($x19319 (or $x685 $x1325 (<= (+ A_0 ?x740 ?x1353 ?x758 B ?x1354 A_2) 0.0) $x1882)))
 (let ((?x805 (* (- 2.0) A_2)))
 (let ((?x1290 (* 2.0 L_2)))
 (let (($x21483 (or $x1356 $x1610 $x1882 (<= (+ ?x749 A_1 S_4 ?x799 ?x1290 B ?x805 A_3) 0.0))))
 (let ((?x1547 (* (- 2.0) B)))
 (let (($x2627 (<= (+ L_1 ?x893 ?x1578 (* (- 2.0) L_2) ?x1547 (* 2.0 A_2)) 0.0)))
 (let (($x5179 (or $x1829 (<= (+ ?x753 L_2 S_4 ?x1594 (* (- 2.0) S_2) ?x1432) 0.0))))
 (let (($x31097 (or $x1356 $x1610 $x1882 (<= (+ ?x843 S_4 ?x749 A_1 ?x1290 B ?x753) 0.0))))
 (let (($x2359 (or (<= (+ A_0 ?x740 (* (- 2.0) S_2) ?x780 ?x758 A_2) 0.0) $x1829)))
 (let (($x31082 (or (<= (+ ?x787 L_0 (* 2.0 S_1) B L_2 ?x753) 0.0) $x1610 $x1882)))
 (and (<= ?x749 ?x740) (<= ?x758 ?x749) (or (<= (+ S_2 B L_2 ?x753) 0.0) $x1610) (or $x685 $x1325 (<= (+ S_1 L_1 B ?x893) 0.0)) $x31082 $x2359 (or $x1356 $x1610 $x1882 (<= (+ ?x749 A_1 S_3 ?x1290 ?x1223 ?x805) 0.0)) (or $x1882 (<= (+ A_3 ?x749 A_1 L_2 B ?x805) 0.0) $x2627) $x31097 $x5179 (or $x1829 (<= (+ S_4 ?x1424 ?x1425 (* (- 4.0) S_2)) 0.0)) (or $x1829 (<= (+ ?x1594 ?x1432 S_3 (* (- 3.0) S_2)) 0.0)) (or (<= (+ ?x787 L_0 ?x780 ?x1348 L_2 ?x1338 ?x753) 0.0) $x1610 $x1882) (or $x1882 $x2299 $x2627) $x21483 $x19319 $x32119 (or $x924 $x1303 $x1610 $x1882) (or $x1356 $x1610 $x1882 (<= (+ ?x1348 ?x1338 S_4 ?x1308 ?x1309 ?x1310) 0.0)) (or $x1882 $x2299 (<= (+ ?x4210 ?x4257 ?x4258 ?x758 ?x780 A_2) 0.0)) $x31243 (or $x924 $x1610 $x1882 $x6083) (or (<= (+ ?x787 L_0 ?x1304 ?x1348 ?x1547 ?x1338) 0.0) $x1848) (or $x924 (<= (+ A_0 ?x740 ?x1307 ?x1308 ?x1309 ?x1310) 0.0) $x1610 $x1882) $x19547 (or $x1829 (<= (+ ?x753 L_2 S_3 A_0 ?x1447 ?x740) 0.0)) $x11175 (or $x1882 $x2299 $x4260) (or $x1882 $x2299 $x4287 $x7743) $x30566 (or $x1882 $x2299 $x3187) (or $x1829 (<= (+ ?x843 S_4 A_0 ?x740 ?x1447 L_1) 0.0)) $x11437 $x14661 $x21070 (or $x685 $x1325 (<= (+ S_4 ?x1424 ?x1425 ?x1567 ?x1551 ?x1574) 0.0) $x1882) $x32060 $x15580 $x31198 $x31124 (or $x1829 (<= (+ ?x4218 ?x4220 ?x4208 ?x12966 ?x1447 ?x12174 ?x12968) 0.0)) $x17334 (or $x685 $x1325 $x1602 $x1882) $x31060 $x31861 $x1357 $x1320 $x1306 (<= (+ ?x787 L_0 S_0) 0.0) $x1600 (<= (+ S_4 ?x799 L_2) 0.0) (<= (+ L_1 ?x893 S_1) 0.0) (<= (+ ?x1578 S_3) 0.0) (<= (+ (* (- 1.0) S_1) S_0) 0.0) (<= (+ ?x843 L_2 S_3) 0.0) (<= (+ ?x753 L_2 S_2) 0.0) (<= (+ ?x1304 S_2) 0.0) (<= (+ ?x1447 S_1) 0.0) (<= (+ ?x799 ?x780 A_3) 0.0)))))))))))))))))))))))))))))))))))))))))))))))))))))))))))))))))))))))))))))))))))))))))))))))))))))))))))))
(check-sat)
